20	5
0	10	7	9	8	10	4	5	1	2	3	6
1	2	15	11
2	1	20
3	3	11	15	18
4	1	19
5	3	15	16	19
6	3	20	18	13
7	3	18	12	11
8	1	14
9	3	18	14	17
10	3	19	16	14
11	3	20	17	16
12	2	16	15
13	1	21
14	1	21
15	1	21
16	1	21
17	1	21
18	1	21
19	1	21
20	1	21
21	0
0	0	0	0	0	0	0
1	8	5	5	4	4	1
2	9	3	3	1	0	2
3	5	0	0	0	1	4
4	3	0	1	3	3	0
5	8	0	3	0	0	3
6	4	1	2	3	5	4
7	1	5	5	2	5	1
8	9	4	3	0	0	0
9	1	0	0	3	5	1
10	5	4	2	4	3	5
11	9	0	3	3	3	0
12	9	3	3	4	5	3
13	2	2	0	4	1	0
14	8	2	3	0	0	3
15	8	2	1	5	1	2
16	5	0	1	5	0	1
17	1	2	5	5	0	0
18	9	4	1	2	0	1
19	8	3	3	2	3	1
20	8	3	4	1	5	4
21	0	0	0	0	0	0
12	14	12	14	11
